p cnf 35 1249
-13 -16 0
-6 -10 0
-6 -7 -8 0
-2 -6 -7 0
-11 -14 0
-5 -8 -12 0
-2 -19 0
-4 -21 -22 0
-4 -11 -24 0
-6 -12 -23 0
-5 -11 -12 0
-6 -11 -21 0
-4 -11 -31 0
-6 -22 -23 0
-6 -20 -23 0
-23 -27 -30 0
-26 -27 -29 0
-23 -27 -32 0
-4 -25 0
-4 -11 -23 -28 0
-8 -35 0
-8 -9 -15 0
-11 -13 -18 0
-8 -13 -33 0
-4 -23 -32 0
-6 -8 -32 0
-6 -11 -24 0
-23 -26 -32 0
-25 -26 -32 0
-13 -27 -29 0
-21 -27 0
-2 -6 -22 0
-1 -7 0
-8 -14 -27 0
-10 -14 -34 0
-10 -15 -27 0
-8 -14 -16 0
-23 -33 0
-9 -15 -21 0
-3 -10 -15 0
-10 -21 -33 0
-2 -10 -15 -16 0
-2 -7 -15 0
-2 -12 -32 0
-23 -32 -34 0
-2 -22 -32 0
-2 -25 -32 0
-26 -31 0
-14 -16 -26 0
-4 -16 -21 0
-4 -17 -29 0
-4 -12 -14 0
-2 -17 -29 0
-1 -22 -27 0
-1 -9 -22 0
-1 -16 -22 0
-3 -16 -21 0
-3 -21 -22 0
-6 -7 -13 0
-7 -13 -14 0
-13 -17 -31 0
-13 -17 -25 -32 0
-6 -12 -13 -17 0
-14 -19 -26 0
-18 -26 -29 0
-21 -26 -28 0
-21 -26 -30 0
-12 -20 -26 -29 0
-5 -12 -26 0
-12 -14 -26 -35 0
-12 -14 -26 -33 0
-17 -26 -29 0
-25 -26 -34 0
-9 -14 -26 0
-20 -24 -26 -29 0
-20 -23 -26 -29 0
-20 -22 -26 -29 0
-20 -25 -26 -29 0
-2 -10 -32 0
-5 -8 -32 0
-8 -14 -26 -32 0
-10 -20 -26 -29 0
-4 -10 -14 0
-4 -10 -24 0
-4 -10 -21 0
-4 -10 -15 0
-23 -26 -30 0
-2 -22 -30 0
-26 -29 -30 0
-13 -26 -28 0
-26 -28 -29 0
-8 -26 -29 -33 0
-1 -4 -22 0
-4 -5 -10 0
-4 -11 -29 0
-3 -13 -22 0
-8 -13 -20 0
-3 -16 -23 0
-8 -15 -16 0
-8 -15 -20 0
-8 -15 -18 0
-3 -8 -15 -22 0
-7 -8 -15 0
-8 -12 -15 -27 0
-8 -11 -12 -15 0
-4 -11 -21 0
-13 -19 -26 0
-6 -8 -12 0
-4 -11 -13 -30 0
-2 -8 -20 0
-1 -8 -20 0
-1 -4 -12 0
-1 -11 -24 0
-1 -11 -12 0
-24 -26 -30 0
-24 -26 -32 0
-24 -26 -33 0
-3 -16 -24 -26 0
-24 -26 -28 0
-24 -26 -27 0
-10 -24 -34 0
-8 -21 -33 0
-1 -16 -21 0
-2 -16 -21 0
-11 -24 -34 0
-8 -24 -34 0
-9 -21 -34 0
-8 -16 -21 -34 0
-8 -21 -26 -32 0
-7 -8 -21 -34 0
-11 -21 -34 0
-8 -20 -21 -34 0
-19 -21 -26 -34 0
-8 -18 -21 -34 0
-10 -21 -34 0
-12 -13 -15 -17 0
-12 -21 -26 -34 0
-3 -12 -14 -26 0
-6 -8 -20 0
-8 -14 -17 0
-6 -8 -19 0
-23 -28 -34 0
-6 -8 -31 0
-2 -8 -31 0
-5 -8 -31 0
-8 -14 -28 0
-4 -8 -21 -32 0
-8 -15 -28 0
-8 -13 -28 0
-8 -21 -28 -34 0
-3 -9 -21 0
-1 -9 -10 0
-1 -9 -21 0
-11 -15 -21 0
-5 -11 -31 0
-5 -10 -11 0
-5 -11 -21 0
-11 -24 -35 0
-11 -23 -35 0
-10 -11 -35 0
-11 -21 -35 0
-9 -21 -33 0
-13 -17 -19 0
-6 -13 -17 -24 0
-13 -17 -30 0
-13 -17 -29 0
-13 -17 -28 0
-6 -13 -17 -22 0
-6 -18 -21 -26 0
-6 -17 -21 -26 0
-17 -21 -26 -32 0
-18 -21 -26 -32 0
-4 -17 -21 0
-14 -18 -26 0
-13 -18 -26 0
-5 -18 -21 -26 0
-18 -21 -26 -35 0
-15 -18 -21 -26 0
-2 -18 -21 -26 0
-18 -21 -26 -33 0
-18 -21 -26 -34 0
-3 -10 -21 0
-1 -12 -20 -26 0
-1 -19 -26 0
-19 -26 -29 0
-16 -26 -29 0
-5 -10 -16 -26 0
-5 -16 -24 -26 0
-5 -16 -23 -26 0
-5 -16 -21 -26 0
-6 -8 -16 -21 0
-5 -7 -26 -29 0
-5 -8 -9 -29 0
-5 -7 -8 0
-5 -8 -9 -21 0
-8 -15 -17 -21 0
-5 -17 -21 -26 0
-5 -8 -20 0
-8 -14 -20 0
-7 -8 -14 0
-7 -14 -26 0
-14 -17 -26 0
-9 -15 -25 -26 0
-24 -26 -35 0
-23 -26 -35 0
-2 -12 -35 0
-1 -6 -12 -26 0
-4 -5 -12 0
-5 -12 -13 -27 0
-1 -12 -17 0
-1 -10 -27 0
-5 -19 -23 -27 0
-1 -17 -25 0
-1 -17 -29 0
-1 -17 -19 0
-1 -4 -19 0
-23 -27 -31 0
-13 -27 -31 0
-2 -20 -25 0
-2 -16 -25 0
-2 -25 -27 0
-2 -25 -33 0
-2 -25 -34 0
-9 -13 -15 0
-3 -23 -30 0
-6 -23 -30 0
-2 -25 -30 0
-5 -10 -34 0
-10 -34 -35 0
-10 -15 -34 0
-10 -13 -18 -34 0
-1 -10 -34 0
-1 -10 -16 0
-9 -10 -15 0
-5 -7 -13 0
-7 -13 -20 0
-7 -13 -35 0
-7 -13 -18 0
-2 -8 -22 -28 0
-2 -8 -23 -28 0
-2 -8 -25 -28 0
-2 -8 -21 -28 0
-2 -17 -21 -30 0
-2 -23 -30 0
-2 -7 -16 -24 0
-2 -8 -18 0
-2 -16 -22 0
-2 -22 -33 0
-2 -7 -32 0
-6 -8 -15 -30 0
-8 -15 -33 0
-5 -8 -29 -33 0
-6 -8 -29 -30 0
-6 -8 -16 -29 0
-6 -8 -27 -29 0
-6 -8 -16 -24 0
-6 -8 -24 -28 0
-6 -8 -24 -27 0
-6 -8 -18 0
-6 -8 -24 -30 0
-6 -8 -24 -33 0
-6 -8 -25 0
-8 -9 -14 0
-6 -8 -13 -30 0
-6 -8 -22 0
-5 -11 -29 0
-1 -11 -29 0
-4 -23 -30 0
-4 -8 -31 0
-3 -8 -12 -14 0
-8 -14 -25 -34 0
-10 -13 -32 -34 0
-23 -25 -34 0
-10 -13 -29 -34 0
-10 -13 -25 -34 0
-10 -13 -19 -34 0
-4 -13 -19 0
-13 -19 -27 0
-13 -24 -27 0
-23 -25 -27 0
-13 -25 -27 0
-7 -13 -27 -32 0
-4 -12 -13 -30 0
-13 -27 -30 0
-7 -13 -28 0
-4 -12 -31 0
-4 -19 -29 0
-4 -7 -29 0
-4 -22 -29 0
-11 -15 -24 0
-2 -11 -16 -24 0
-2 -11 -20 -24 0
-2 -11 -31 0
-2 -12 -31 0
-2 -6 -25 0
-9 -15 -23 0
-3 -23 -25 0
-23 -34 -35 0
-23 -24 -34 0
-2 -20 -23 0
-23 -31 -34 0
-6 -18 -23 -34 0
-13 -18 -23 -34 0
-9 -13 -14 0
-6 -9 -13 -29 0
-5 -9 -13 -29 0
-4 -9 -23 -29 0
-1 -4 -10 0
-3 -10 -13 -29 0
-3 -10 -23 -24 0
-3 -10 -24 -26 0
-2 -3 -25 0
-3 -13 -17 -25 0
-3 -9 -13 -19 0
-3 -10 -13 -19 0
-7 -13 -15 0
-11 -12 -13 -15 0
-9 -13 -20 0
-11 -12 -13 -20 0
-12 -13 -20 -26 0
-9 -13 -35 0
-5 -9 -12 -13 0
-9 -13 -28 0
-9 -13 -18 0
-9 -13 -33 0
-7 -13 -33 0
-11 -12 -13 -33 0
-10 -13 -33 0
-22 -26 -29 -32 0
-12 -21 -26 -35 0
-12 -26 -29 -32 0
-12 -13 -26 -35 0
-12 -13 -26 -33 0
-2 -12 -13 -33 0
-11 -13 -20 -31 0
-11 -13 -28 0
-3 -11 -13 -19 0
-3 -11 -13 -29 0
-1 -11 -13 -30 0
-5 -11 -13 -30 0
-5 -11 -25 0
-13 -14 -27 0
-13 -18 -27 0
-13 -17 -18 0
-13 -14 -17 0
-13 -17 -20 -24 0
-13 -17 -24 -32 0
-13 -17 -24 -35 0
-13 -17 -24 -33 0
-2 -17 -21 -33 0
-3 -17 -21 0
-6 -13 -17 -21 0
-5 -13 -17 -21 0
-1 -17 -21 0
-13 -17 -21 -32 0
-13 -17 -25 -33 0
-13 -17 -25 -34 0
-13 -17 -25 -35 0
-10 -13 -17 -20 0
-10 -13 -15 -17 0
-5 -10 -17 -26 0
-5 -9 -13 -22 0
-13 -17 -23 -32 0
-10 -13 -17 -32 0
-4 -10 -35 0
-9 -13 -27 -32 0
-9 -13 -26 -32 0
-5 -9 -13 -32 0
-13 -17 -23 -35 0
-6 -9 -13 -32 0
-2 -9 -13 -32 0
-4 -8 -13 -32 0
-1 -8 -11 -32 0
-9 -13 -32 -34 0
-3 -9 -13 -32 0
-9 -13 -17 -32 0
-1 -9 -13 -32 0
-1 -9 -23 -30 0
-1 -9 -13 -19 0
-9 -13 -24 -34 0
-9 -13 -25 -34 0
-9 -13 -30 -34 0
-11 -13 -19 -34 0
-7 -13 -19 -34 0
-9 -13 -19 -34 0
-9 -13 -29 -34 0
-2 -7 -31 0
-2 -9 -13 -31 0
-4 -10 -31 0
-4 -9 -13 -31 0
-4 -9 -21 0
-4 -9 -13 -32 0
-1 -9 -13 -29 0
-4 -8 -24 -30 0
-4 -9 -13 -24 0
-4 -9 -13 -30 0
-4 -9 -13 -29 0
-5 -9 -10 -13 0
-5 -8 -13 -30 0
-13 -26 -30 0
-6 -9 -13 -30 0
-6 -9 -13 -24 0
-6 -9 -21 0
-6 -23 -25 0
-6 -25 -26 0
-6 -9 -13 -25 0
-5 -9 -13 -31 0
-6 -9 -12 -13 0
-1 -2 -12 -34 0
-1 -12 -13 -27 0
-1 -9 -12 -13 0
-3 -9 -13 -24 0
-3 -9 -13 -29 0
-2 -9 -13 -30 0
-3 -11 -13 -31 0
-3 -9 -13 -31 0
-10 -13 -31 -34 0
-11 -13 -31 -34 0
-7 -13 -31 -34 0
-8 -13 -31 -34 0
-9 -13 -31 -34 0
-1 -9 -13 -31 0
-6 -11 -23 -31 0
-6 -19 -23 0
-6 -9 -13 -19 0
-6 -9 -13 -22 0
-6 -9 -13 -31 0
-1 -11 -25 0
-1 -9 -25 -26 0
-5 -9 -13 -25 0
-5 -9 -13 -24 0
-2 -5 -12 0
-3 -5 -12 -23 0
-3 -19 -23 0
-1 -3 -22 0
-13 -17 -24 -34 0
-15 -17 -24 -26 0
-3 -13 -17 -24 0
-5 -8 -9 -24 0
-6 -8 -9 -24 0
-4 -8 -9 -24 0
-2 -8 -32 0
-4 -8 -16 -29 0
-2 -5 -7 0
-2 -7 -20 0
-2 -7 -35 0
-2 -7 -18 0
-2 -12 -18 0
-2 -10 -20 0
-2 -16 -24 -26 0
-2 -20 -24 -26 0
-6 -9 -24 -26 0
-24 -26 -34 0
-6 -18 -24 -26 0
-6 -17 -23 -24 0
-6 -9 -23 -28 0
-6 -9 -23 -24 0
-6 -9 -23 -35 0
-6 -9 -23 -31 0
-6 -17 -23 -28 0
-6 -17 -23 -35 0
-6 -17 -23 -31 0
-2 -16 -23 0
-23 -24 -27 0
-14 -23 -27 0
-14 -18 -23 -34 0
-18 -21 -23 -34 0
-18 -23 -29 -34 0
-15 -18 -23 -27 0
-5 -18 -23 -27 0
-2 -18 -23 -27 0
-1 -18 -23 -27 0
-3 -8 -18 -23 0
-23 -27 -28 0
-23 -26 -28 0
-4 -10 -23 -28 0
-4 -10 -29 0
-23 -30 -34 0
-10 -26 -29 -32 0
-7 -26 -29 -33 0
-12 -26 -29 -33 0
-11 -26 -29 -33 0
-10 -26 -29 -33 0
-2 -10 -18 -26 0
-2 -12 -20 0
-2 -6 -12 0
-4 -9 -26 -29 0
-9 -20 -26 -29 0
-9 -26 -29 -32 0
-9 -26 -29 -35 0
-11 -26 -29 -35 0
-11 -20 -26 -29 0
-11 -26 -29 -32 0
-3 -11 -26 -29 0
-6 -11 -26 -29 0
-11 -13 -15 -29 0
-11 -13 -29 -34 0
-4 -12 -24 0
-4 -13 -15 -22 0
-14 -20 -23 -26 0
-3 -25 -26 0
-14 -20 -24 -26 0
-1 -10 -33 0
-1 -3 -10 0
-10 -15 -33 0
-23 -27 -29 0
-3 -20 -23 0
-3 -22 -23 0
-3 -12 -18 -23 0
-3 -18 -23 -27 0
-3 -10 -18 -23 0
-4 -10 -13 -20 0
-10 -11 -13 -20 0
-10 -13 -20 -27 0
-10 -13 -20 -26 0
-10 -26 -29 -34 0
-2 -3 -22 0
-2 -7 -22 -28 0
-2 -12 -22 -28 0
-2 -4 -22 -28 0
-2 -22 -27 -28 0
-2 -22 -26 -28 0
-3 -9 -26 -29 0
-3 -5 -10 -23 0
-3 -8 -10 -14 0
-3 -5 -10 -26 0
-10 -26 -35 0
-5 -10 -20 -26 0
-10 -14 -20 -26 0
-10 -15 -20 -26 0
-1 -10 -20 -26 0
-1 -10 -18 -26 0
-1 -11 -21 0
-1 -10 -17 0
-1 -10 -11 0
-13 -15 -17 -22 0
-2 -11 -15 -22 0
-8 -11 -15 -22 0
-11 -15 -22 -23 0
-5 -11 -20 -23 0
-11 -15 -18 -23 0
-1 -11 -18 -23 0
-1 -16 -23 0
-1 -4 -8 -32 0
-1 -8 -26 -32 0
-1 -12 -26 -32 0
-1 -22 -26 -30 0
-1 -11 -22 0
-1 -6 -22 -26 0
-1 -20 -22 -26 0
-1 -22 -26 -28 0
-1 -18 -22 -26 0
-1 -22 -26 -32 0
-5 -9 -26 -29 0
-6 -9 -26 -29 0
-9 -15 -26 -29 0
-9 -26 -29 -33 0
-1 -9 -26 -29 0
-22 -26 -29 -34 0
-2 -22 -26 -35 0
-14 -22 -26 -35 0
-21 -22 -26 -35 0
-25 -26 -33 0
-25 -26 -35 0
-14 -20 -25 -26 0
-5 -20 -25 -26 0
-13 -20 -24 -26 0
-15 -20 -24 -26 0
-1 -20 -24 -26 0
-1 -18 -25 -26 0
-1 -18 -21 -26 0
-3 -18 -24 -26 0
-3 -11 -21 0
-3 -19 -21 -26 0
-4 -12 -21 0
-7 -15 -23 -26 0
-4 -12 -15 -23 0
-10 -15 -16 -26 0
-10 -15 -19 -26 0
-10 -15 -18 -26 0
-10 -11 -15 0
-2 -12 -15 -17 0
-2 -12 -23 -28 0
-8 -13 -18 0
-5 -8 -19 0
-8 -14 -18 0
-1 -8 -21 -28 0
-1 -8 -22 -28 0
-1 -8 -23 -28 0
-1 -8 -18 0
-1 -8 -10 -28 0
-1 -8 -24 -28 0
-1 -8 -31 -34 0
-1 -8 -12 -16 0
-1 -8 -16 -32 0
-1 -8 -27 -32 0
-1 -11 -31 0
-8 -15 -27 -30 0
-5 -8 -15 -30 0
-8 -11 -15 -30 0
-11 -13 -20 -23 0
-13 -20 -23 -27 0
-13 -20 -23 -26 0
-13 -20 -23 -34 0
-13 -17 -20 -23 0
-4 -13 -20 -23 0
-2 -10 -14 -30 0
-2 -10 -13 -30 0
-3 -5 -10 -13 0
-3 -10 -13 -14 0
-3 -10 -13 -20 0
-13 -17 -20 -25 0
-5 -12 -13 -17 0
-2 -12 -14 -17 0
-2 -7 -21 -28 0
-2 -7 -25 -28 0
-2 -12 -25 -28 0
-2 -3 -7 -24 0
-2 -11 -24 -27 0
-2 -12 -24 -27 0
-2 -10 -16 -29 0
-2 -8 -16 -29 0
-2 -7 -16 -29 0
-2 -12 -16 -29 0
-2 -12 -27 -29 0
-2 -11 -12 -15 0
-2 -12 -15 -16 0
-2 -4 -12 -15 0
-2 -12 -13 -28 0
-2 -12 -13 -30 0
-2 -12 -29 -30 0
-2 -7 -14 0
-2 -12 -14 -33 0
-2 -12 -21 -28 0
-2 -12 -15 -33 0
-2 -12 -24 -34 0
-2 -3 -12 -14 0
-2 -9 -12 -14 0
-2 -9 -12 -15 0
-2 -12 -15 -34 0
-2 -12 -28 -29 0
-2 -12 -24 -28 0
-2 -12 -15 -30 0
-1 -2 -12 -27 0
-1 -2 -12 -30 0
-1 -8 -12 -28 0
-1 -2 -12 -28 0
-2 -12 -16 -24 0
-2 -12 -24 -33 0
-2 -12 -29 -33 0
-1 -8 -9 -12 0
-1 -2 -9 -12 0
-1 -2 -12 -16 0
-1 -2 -12 -33 0
-2 -12 -21 -33 0
-3 -12 -26 -29 0
-3 -7 -13 -29 0
-3 -8 -12 -21 0
-2 -3 -12 -21 0
-2 -3 -12 -24 0
-3 -12 -15 -23 0
-3 -8 -12 -15 0
-2 -3 -12 -15 0
-12 -13 -15 -27 0
-2 -12 -15 -27 0
-2 -12 -15 -28 0
-2 -12 -29 -34 0
-3 -7 -23 -29 0
-2 -3 -10 -29 0
-2 -3 -12 -29 0
-4 -12 -29 0
-2 -12 -24 -30 0
-2 -12 -21 -30 0
-2 -12 -14 -28 0
-2 -12 -14 -16 0
-2 -12 -14 -27 0
-2 -12 -14 -30 0
-8 -12 -14 -34 0
-2 -12 -14 -34 0
-2 -12 -21 -34 0
-1 -2 -3 -12 0
-2 -9 -14 -23 0
-8 -14 -33 0
-2 -8 -14 -30 0
-5 -8 -14 -30 0
-8 -14 -30 -34 0
-4 -8 -14 -32 0
-8 -14 -32 -34 0
-8 -14 -19 -34 0
-8 -15 -19 -34 0
-8 -21 -32 -34 0
-8 -13 -19 -34 0
-1 -8 -32 -34 0
-8 -12 -21 -34 0
-1 -8 -12 -34 0
-8 -13 -30 -34 0
-7 -13 -29 -34 0
-7 -13 -32 -34 0
-7 -13 -25 -34 0
-8 -13 -25 -34 0
-8 -15 -25 -34 0
-8 -13 -32 -34 0
-8 -12 -13 -29 -34 0
-8 -12 -15 -34 0
-13 -15 -22 -26 -34 0
-14 -22 -26 -34 0
-8 -14 -22 -34 0
-10 -23 -29 -34 0
-2 -7 -29 -34 0
-2 -11 -29 -34 0
-2 -8 -9 -29 -34 0
-2 -22 -29 -34 0
-2 -21 -22 -34 0
-2 -15 -22 -34 0
-1 -2 -22 -34 0
-5 -8 -22 -34 0
-2 -17 -21 -34 0
-8 -21 -30 -34 0
-8 -17 -21 -34 0
-5 -8 -25 -34 0
-1 -8 -25 -34 0
-8 -19 -21 -34 0
-3 -8 -19 -21 0
-8 -15 -19 -26 0
-12 -15 -17 -23 -26 0
-10 -15 -17 -26 0
-15 -17 -21 -26 0
-10 -21 -26 -32 0
-14 -22 -26 -32 0
-6 -13 -22 -26 0
-6 -21 -22 -26 0
-7 -21 -26 -32 0
-14 -26 -30 0
-14 -26 -27 0
-14 -26 -28 0
-2 -11 -20 -21 0
-2 -11 -21 -32 0
-11 -21 -26 -32 0
-13 -20 -22 -26 0
-13 -22 -26 -32 0
-21 -22 -26 -32 0
-13 -22 -26 -33 0
-21 -22 -26 -34 0
-5 -20 -21 -22 -26 0
-5 -20 -23 -26 0
-5 -19 -21 -26 0
-7 -21 -26 -35 0
-15 -19 -21 -26 0
-6 -12 -21 -26 0
-19 -21 -26 -33 0
-11 -21 -33 0
-15 -16 -21 -26 0
-16 -21 -26 -35 0
-6 -16 -21 -26 0
-16 -21 -26 -32 0
-6 -16 -23 0
-5 -8 -16 -21 0
-16 -23 -29 -34 0
-14 -16 -23 -34 0
-5 -12 -23 -34 0
-5 -19 -23 -34 0
-5 -16 -23 -34 0
-7 -15 -23 -34 0
-15 -16 -23 -34 0
-16 -21 -23 -34 0
-16 -21 -26 -34 0
-16 -21 -26 -33 0
-7 -20 -26 -29 0
-6 -7 -26 -29 0
-7 -15 -21 -26 0
-6 -7 -21 -26 0
-5 -7 -21 -26 0
-4 -7 -21 0
-7 -21 -26 -33 0
-12 -21 -26 -33 0
-17 -21 -26 -33 0
-21 -22 -26 -33 0
-5 -20 -24 -26 0
-4 -20 -24 -26 0
-4 -19 -21 0
-4 -18 -21 -26 0
-3 -7 -23 -24 0
-3 -7 -13 -24 0
-3 -7 -24 -26 0
-3 -7 -21 0
-7 -15 -25 -26 0
-25 -26 -30 0
-5 -7 -10 -26 0
-5 -19 -23 -26 0
-5 -7 -23 -26 0
-5 -7 -24 -26 0
-5 -7 -25 -26 0
-3 -18 -23 -26 0
-6 -7 -23 0
-4 -9 -24 -26 0
-4 -16 -24 -26 0
-4 -7 -8 -24 0
-3 -7 -26 -29 0
-9 -26 -29 -34 0
-11 -26 -29 -34 0
-7 -26 -29 -34 0
-12 -26 -29 -34 0
-11 -15 -26 -29 0
-7 -15 -26 -29 0
-6 -12 -24 -26 0
-6 -22 -24 -26 0
-6 -14 -22 -26 0
-14 -22 -26 -33 0
-22 -26 -29 -33 0
-6 -22 -26 -29 0
-22 -26 -29 -35 0
-12 -26 -29 -35 0
-6 -12 -26 -29 0
-3 -14 -22 -26 0
-3 -22 -24 -26 0
-3 -22 -26 -29 0
-3 -10 -26 -29 0
-8 -26 -29 -32 0
-4 -8 -20 -29 0
-8 -20 -26 -29 0
-7 -26 -29 -35 0
-7 -26 -29 -32 0
-7 -13 -21 -34 0
-2 -7 -21 -34 0
-2 -4 -7 -24 0
-7 -13 -24 -34 0
-2 -7 -24 -34 0
-2 -7 -24 -27 0
-4 -9 -23 -24 0
-4 -7 -15 -23 0
-4 -15 -22 -23 0
-4 -15 -20 -23 0
-4 -15 -16 -23 0
-4 -15 -19 -23 0
-4 -17 -23 -31 0
-4 -20 -23 -31 0
-4 -9 -14 -23 0
-4 -9 -23 -28 0
-4 -9 -23 -35 0
-4 -9 -23 -31 0
-2 -4 -22 -31 0
-4 -13 -14 -22 0
-4 -13 -22 -31 0
-4 -22 -23 -31 0
-4 -14 -16 -23 0
-4 -16 -23 -24 0
-4 -5 -16 -23 0
-4 -16 -23 -31 0
-4 -19 -23 -31 0
-4 -7 -14 -23 0
-4 -7 -23 -24 0
-4 -5 -7 -23 0
-4 -7 -23 -31 0
-4 -7 -23 -28 0
-4 -7 -23 -35 0
-3 -7 -18 -23 0
-3 -11 -18 -23 0
-4 -5 -9 -18 -23 0
-1 -18 -23 -34 0
-3 -17 -18 -23 0
-6 -14 -17 -23 0
-4 -8 -14 -22 0
-4 -5 -8 -22 0
-4 -8 -22 -24 0
-2 -15 -17 -22 0
-5 -8 -17 -22 0
-1 -8 -17 -24 0
-1 -17 -22 0
-2 -15 -22 -27 0
-5 -8 -22 -27 0
-5 -8 -9 -22 0
-2 -9 -22 -35 0
-2 -9 -10 -31 0
-2 -9 -22 -31 0
-2 -17 -25 -31 0
-2 -10 -14 -17 0
-2 -17 -22 -31 0
-2 -20 -22 0
-2 -17 -20 -21 0
-2 -23 -32 0
-2 -10 -30 -31 0
-2 -5 -10 -30 0
-2 -10 -21 -30 0
-2 -5 -9 -10 0
-2 -9 -14 -25 0
-2 -9 -21 -28 0
-2 -9 -10 -14 0
-2 -10 -27 -29 0
-2 -10 -24 -30 0
-2 -10 -16 -35 0
-2 -10 -16 -18 0
-2 -10 -11 -18 0
-2 -4 -10 -18 0
-2 -10 -18 -30 0
-2 -9 -10 -18 0
-2 -10 -18 -33 0
-2 -10 -31 -34 0
-2 -3 -10 -31 0
-2 -3 -5 -10 0
-2 -10 -24 -27 0
-2 -10 -27 -35 0
-2 -11 -27 -29 0
-2 -8 -16 -24 0
-2 -8 -24 -27 0
-2 -8 -24 -30 0
-2 -11 -21 -30 0
-2 -7 -13 -30 0
-2 -8 -13 -30 0
-11 -13 -20 -29 0
-2 -11 -13 -30 0
-2 -6 -11 -29 0
-2 -11 -29 -32 0
-2 -11 -29 -35 0
-2 -11 -28 -29 0
-2 -11 -18 -24 0
-2 -11 -18 -21 0
-2 -11 -18 -29 0
-2 -5 -11 -22 0
-2 -11 -22 -35 0
-2 -11 -18 -22 0
-25 -26 -27 0
-1 -11 -19 0
-23 -27 -35 0
-13 -27 -28 0
-4 -5 -13 -22 0
-5 -8 -18 0
-5 -8 -16 -24 0
-5 -8 -24 -27 0
-4 -8 -24 -27 0
-8 -15 -24 -27 0
-3 -8 -15 -19 0
-8 -15 -17 -19 0
-8 -15 -17 -32 0
-8 -10 -15 -17 0
-2 -9 -22 -28 0
-2 -9 -10 -24 -28 0
-2 -9 -10 -28 -29 0
-2 -9 -10 -35 0
-2 -9 -25 -28 0
-2 -9 -23 -28 0
-2 -7 -23 -28 0
-2 -3 -10 -18 0
-2 -3 -10 -35 0
-2 -10 -24 -33 0
-2 -11 -24 -28 0
-2 -8 -24 -28 0
-2 -3 -10 -24 0
-3 -10 -13 -28 0
-3 -10 -23 -28 0
-2 -10 -14 -33 0
-2 -10 -14 -16 0
-2 -10 -14 -27 0
-2 -3 -10 -14 0
-3 -10 -13 -31 0
-3 -7 -13 -32 0
-3 -8 -13 -19 0
-3 -8 -12 -13 -24 0
-3 -8 -13 -31 0
-3 -8 -14 -31 0
-3 -8 -21 -32 0
-3 -8 -15 -31 0
-3 -8 -21 -31 0
-6 -23 -32 0
-3 -23 -32 0
-3 -12 -14 -23 0
-3 -12 -23 -31 0
-3 -10 -23 -35 0
-3 -10 -23 -29 0
-3 -9 -14 -23 0
-3 -7 -23 -31 0
-3 -7 -13 -25 0
-3 -7 -13 -30 0
-3 -10 -13 -18 0
-4 -10 -13 -32 0
-10 -13 -27 -32 0
-10 -13 -26 -32 0
-3 -10 -13 -32 0
-3 -11 -13 -30 0
-3 -8 -13 -32 0
-4 -8 -13 -30 0
-4 -12 -13 -15 0
-4 -6 -12 -13 0
-4 -12 -13 -20 0
-4 -12 -13 -32 0
-4 -12 -23 -35 0
-4 -12 -13 -28 0
-1 -3 -12 -23 0
-3 -8 -12 -13 -29 0
-3 -12 -21 -23 0
-3 -12 -23 -24 0
-3 -12 -23 -29 0
-3 -12 -23 -28 0
-10 -13 -28 -34 0
-4 -12 -13 -18 0
-4 -12 -13 -35 0
-12 -13 -27 -32 0
-12 -13 -27 -35 0
-12 -13 -20 -27 0
-12 -13 -27 -33 0
-4 -12 -13 -33 0
-13 -17 -22 -33 0
-12 -13 -17 -20 0
-12 -13 -17 -35 0
-12 -13 -17 -33 0
-3 -11 -13 -25 0
-6 -11 -13 -22 0
-5 -11 -13 -22 0
-11 -13 -20 -22 0
-13 -22 -27 -32 0
-13 -22 -27 -35 0
-13 -15 -22 -27 0
-13 -22 -27 -33 0
-4 -13 -22 -33 0
-11 -13 -22 -35 0
-11 -13 -15 -30 0
-11 -13 -30 -33 0
-11 -13 -25 -33 0
-11 -13 -15 -22 0
-11 -13 -22 -33 0
-11 -13 -24 -33 0
-11 -13 -29 -33 0
-11 -13 -31 -33 0
-11 -13 -15 -19 0
-5 -11 -13 -19 0
-11 -13 -19 -20 0
-11 -13 -19 -33 0
-13 -17 -21 -33 0
-8 -13 -27 -32 0
-6 -12 -13 -27 0
-6 -11 -12 -13 0
-12 -13 -26 -32 0
-11 -12 -13 -32 -34 0
-3 -11 -12 -13 -32 0
-12 -13 -17 -32 0
-7 -13 -30 -34 0
-4 -7 -13 -30 0
-7 -13 -17 -32 0
-4 -7 -13 -24 0
-4 -7 -13 -32 0
-7 -13 -26 -32 0
-3 -7 -13 -19 0
-3 -7 -13 -31 0
-4 -7 -13 -31 0
-11 -13 -15 -31 0
-6 -11 -13 -31 0
-11 -13 -31 -35 0
-8 -11 -15 -31 0
-3 -11 -23 -31 0
-3 -11 -23 -24 0
-3 -11 -23 -29 0
-3 -11 -23 -28 0
-5 -11 -23 -30 0
-5 -8 -16 -23 0
-5 -8 -23 -28 0
-5 -8 -11 -22 0
-5 -11 -24 0
-2 -3 -11 -24 0
-3 -11 -13 -24 0
-3 -11 -24 -26 0
-11 -15 -20 -23 0
-15 -19 -23 -27 0
-11 -12 -15 -23 0
-11 -15 -19 -23 0
-8 -15 -26 -32 0
-8 -11 -15 -32 0
-11 -13 -15 -25 0
-11 -13 -20 -25 0
-6 -11 -13 -30 0
-11 -13 -30 -35 0
-11 -13 -25 -35 0
-6 -11 -13 -25 0
-11 -13 -25 -34 0
-13 -17 -22 -32 0
-4 -13 -22 -32 0
-4 -13 -20 -22 0
-4 -6 -13 -22 0
-4 -13 -22 -24 0
-4 -13 -22 -30 0
-4 -13 -22 -28 0
-4 -13 -17 -24 0
-5 -13 -17 -24 0
-1 -13 -17 -24 0
-2 -5 -9 -21 0
-5 -9 -13 -21 0
-1 -9 -13 -24 0
-1 -9 -13 -25 0
-3 -9 -13 -25 0
-3 -10 -13 -30 0
-3 -9 -13 -30 0
-1 -9 -13 -30 0
-5 -9 -13 -19 0
-5 -9 -13 -30 0
-2 -11 -24 -30 0
-2 -7 -24 -30 0
-2 -8 -29 -30 0
-2 -8 -15 -30 0
-4 -8 -15 -30 0
-4 -8 -29 -30 0
-5 -8 -27 -29 0
-2 -8 -27 -29 0
-8 -15 -27 -29 0
-4 -8 -27 -29 0
-4 -8 -28 -29 0
-6 -8 -9 -29 0
-4 -8 -9 -29 0
-4 -8 -29 -33 0
-4 -8 -16 -24 0
-4 -8 -24 -33 0
-5 -8 -24 -33 0
-5 -8 -24 -30 0
-3 -5 -8 -25 0
-3 -8 -13 -25 0
-3 -8 -14 -30 0
-3 -8 -14 -25 0
-3 -8 -15 -25 0
-8 -15 -17 -29 0
-8 -15 -17 -24 0
-2 -5 -17 -25 0
-5 -8 -25 -27 0
-5 -8 -24 -28 0
-3 -5 -8 -10 0
-5 -8 -10 -28 0
-5 -8 -10 -16 0
-5 -8 -10 -30 0
-5 -8 -10 -33 0
-25 -26 -28 0
-4 -16 -23 -28 0
-4 -12 -23 -28 0
-4 -8 -23 -28 0
-4 -19 -23 -28 0
-4 -5 -22 -23 0
-4 -5 -20 -23 0
-4 -17 -23 -28 0
-2 -17 -23 -28 0
-5 -11 -23 -28 0
-2 -11 -23 -28 0
-3 -9 -23 -24 0
-2 -9 -23 -31 0
-2 -17 -23 -31 0
-2 -9 -23 -35 0
-2 -17 -23 -35 0
-2 -9 -18 -23 0
-6 -9 -23 -29 0
-2 -5 -9 -23 -29 0
-1 -9 -23 -29 0
-9 -23 -29 -34 0
-2 -18 -23 -34 0
-14 -17 -23 -34 0
-2 -5 -22 -27 0
-5 -22 -23 -27 0
-5 -11 -22 -23 0
-5 -11 -18 -23 0
-6 -11 -18 -23 0
-1 -11 -20 -23 0
-1 -4 -20 -23 0
-5 -10 -23 -27 0
-5 -20 -23 -27 0
-5 -12 -23 -27 0
-5 -7 -23 -27 0
-13 -19 -23 -34 0
-14 -22 -23 -34 0
-12 -14 -23 -34 0
-2 -14 -17 -23 0
-2 -15 -17 -23 -24 0
-4 -17 -23 -24 0
-2 -5 -17 -23 -24 0
-1 -17 -23 -24 0
-3 -17 -23 -24 0
-2 -5 -17 -22 0
-5 -9 -22 -23 -26 0
-5 -18 -23 -26 0
-5 -18 -23 -34 0
-11 -15 -25 -26 0
-15 -16 -25 -26 0
-15 -20 -25 -26 0
-15 -19 -24 -26 0
-15 -18 -24 -26 0
-15 -18 -25 -26 0
-15 -19 -23 -26 0
-15 -17 -22 -23 -26 0
-15 -17 -25 -26 0
-5 -8 -17 -25 0
-5 -17 -25 -26 0
-5 -13 -17 -22 0
-5 -10 -13 -17 0
-5 -13 -17 -25 0
-5 -22 -23 -34 0
-5 -11 -23 -32 0
-1 -12 -23 -34 0
-22 -23 -29 -34 0
-12 -15 -23 -34 0
-12 -21 -23 -34 0
-21 -22 -23 -34 0
-1 -22 -23 -34 0
-15 -22 -23 -34 0
-8 -21 -22 -34 0
-1 -8 -22 -34 0
-8 -15 -22 -34 0
-8 -13 -22 -29 -34 0
-2 -22 -24 -34 0
-13 -17 -21 -34 0
-1 -12 -26 -34 0
-12 -13 -15 -26 -34 0
-11 -12 -13 -35 0
-6 -12 -13 -26 0
-12 -14 -26 -34 0
-10 -13 -20 -34 0
-10 -13 -30 -34 0
-11 -13 -30 -34 0
-3 -12 -24 -26 0
-3 -12 -13 -15 -26 0
-1 -3 -12 -26 0
-3 -12 -21 -26 0
-11 -13 -20 -21 0
-13 -20 -25 -26 0
-17 -21 -26 -35 0
-19 -21 -26 -35 0
-1 -22 -26 -35 0
-13 -22 -26 -35 0
-8 -13 -26 -32 0
-2 -18 -23 -26 0
-6 -18 -23 -26 0
-1 -18 -23 -26 0
-15 -18 -23 -26 0
-3 -18 -23 -34 0
-3 -9 -18 -23 0
-6 -9 -18 -23 0
-1 -9 -18 -23 0
-1 -17 -18 -23 0
-2 -4 -18 -22 0
-4 -13 -22 -35 0
-2 -4 -22 -35 0
-2 -4 -14 -22 0
-2 -4 -22 -24 0
-2 -11 -18 -23 0
-2 -17 -18 -23 0
-2 -18 -24 -26 0
-2 -5 -17 -21 0
-2 -6 -17 -21 0
-2 -17 -21 -32 0
-2 -17 -18 -21 0
-2 -17 -25 -28 0
-2 -17 -25 -35 0
-2 -15 -17 -25 0
-2 -17 -18 -25 0
-2 -18 -22 -26 0
-2 -5 -9 -22 0
-2 -9 -15 -22 0
-2 -9 -18 -22 0
